Name: EasyAcademy23
Courses: 79
Rooms: 22
Days: 6
Periods_per_day: 11
Curricula: 22
Min_Max_Daily_Lectures: 3 8
UnavailabilityConstraints: 0
RoomConstraints: 0

COURSES:
c72320 t9998 3 1 0 1
c72357 no_teacher1 2 1 0 1
c72411 t10023 4 2 0 1
c72507 no_teacher2 5 2 0 1
c72508 t9969 1 1 0 0
c72509 t9971 4 2 0 1
c72510 t9974 4 2 0 1
c72511 t9975 5 2 0 1
c72512 no_teacher3 8 2 0 1
c72514 t9977 6 2 0 1
c72515 t9979 6 2 0 1
c72516 no_teacher4 6 3 0 1
c72517 no_teacher5 8 4 0 1
c72518 t9980 6 2 0 1
c72519 t9980 2 1 0 1
c72520 t9986 6 3 0 1
c72521 t9990 6 3 0 1
c72522 t9979 6 2 0 1
c72523 t9993 6 3 0 1
c72524 t9969 6 2 0 1
c72525 t9994 6 2 0 1
c72526 t9995 6 2 0 1
c72527 t9994 1 1 0 0
c72528 t9999 1 1 0 0
c72529 t9999 5 2 0 1
c72530 t10002 6 2 0 1
c72531 no_teacher6 6 3 0 1
c72532 no_teacher7 6 3 0 1
c72533 t9993 6 2 0 1
c72534 no_teacher8 6 2 0 1
c72535 t10009 4 2 0 1
c72536 t10010 5 2 0 1
c72537 t9975 4 2 0 1
c72538 no_teacher9 4 2 0 1
c72539 no_teacher10 8 4 0 1
c72540 t9969 6 2 0 1
c72541 t9995 4 2 0 1
c72542 no_teacher11 4 2 0 1
c72543 t9999 4 2 0 1
c72544 t10013 4 2 0 1
c72545 t10015 4 2 0 1
c72546 t9981 4 2 0 1
c72547 t10005 4 2 0 1
c72548 t10016 4 2 0 1
c72549 t9994 4 2 0 1
c72550 t10013 2 1 0 1
c72551 t10016 1 1 0 0
c72552 t9971 2 1 0 1
c72553 t9971 2 1 0 1
c72554 t9995 2 1 0 1
c72555 t9999 2 1 0 1
c72556 t10017 2 1 0 1
c72557 t9990 2 1 0 1
c72558 t9970 2 1 0 1
c72559 t9994 1 1 0 0
c72560 no_teacher12 4 2 0 1
c72561 no_teacher13 5 2 0 1
c72562 t9992 6 2 0 1
c72563 t9977 4 2 0 1
c72564 t10018 4 2 0 1
c72566 t9975 5 2 0 1
c72567 t10018 5 2 0 1
c72568 t10004 4 1 0 1
c72569 t10021 4 2 0 1
c72570 t10022 4 2 0 1
c72571 t10021 1 1 0 0
c72572 t10005 1 1 0 0
c72573 t10021 1 1 0 0
c72574 t10027 1 1 0 0
c72575 t10013 2 1 0 1
c72576 t10021 4 2 0 1
c72577 t10027 4 2 0 1
c72578 t10016 4 2 0 1
c72579 t9998 4 2 0 1
c72580 t10013 4 2 0 1
c72581 t9977 4 2 0 1
c72582 t10032 4 2 0 1
c72583 t10000 4 2 0 1
c72584 t9970 4 2 0 1

ROOMS:
r5101 126 0
r5102 221 0
r5083 35 1
r5084 35 1
r5085 35 1
r5086 50 1
r5089 60 1
r5088 30 1
r5087 30 1
r5090 24 1
r5091 24 1
r5092 24 1
r5093 20 1
r5094 20 1
r5095 20 1
r5096 20 1
r5098 50 1
r5099 50 1
r5100 50 1
r5097 20 1
r5315 5 1
r5082 30 1

CURRICULA:
cu4313 16 c72545 c72554 c72546 c72547 c72548 c72549 c72550 c72551 c72552 c72553 c72555 c72556 c72557 c72558 c72559 c72584
cu4314 6 c72357 c72541 c72542 c72543 c72544 c72579
cu4315 6 c72568 c72569 c72411 c72570 c72571 c72572
cu4316 6 c72576 c72577 c72573 c72574 c72575 c72580
cu4317 6 c72579 c72581 c72582 c72583 c72580 c72584
cu4318 1 c72578
cu4319 3 c72357 c72566 c72567
cu4321 3 c72560 c72561 c72562
cu4322 2 c72563 c72564
cu4323 7 c72320 c72529 c72530 c72525 c72526 c72527 c72528
cu4324 4 c72522 c72524 c72521 c72523
cu4325 4 c72519 c72521 c72529 c72531
cu4326 5 c72510 c72512 c72514 c72518 c72519
cu4327 6 c72510 c72511 c72512 c72514 c72516 c72517
cu4328 5 c72510 c72511 c72512 c72514 c72515
cu4329 5 c72507 c72510 c72512 c72514 c72520
cu4330 3 c72507 c72509 c72511
cu4331 4 c72507 c72508 c72516 c72517
cu4332 1 c72507
cu4333 1 c72511
cu4334 7 c72534 c72538 c72539 c72540 c72535 c72536 c72537
cu4335 6 c72532 c72533 c72516 c72517 c72523 c72540

UNAVAILABILITY_CONSTRAINTS:

ROOM_CONSTRAINTS:

END.
